certificates/rado_a10_c108_N18.cnf
c Rad2 upper bound instance: x1 + 10*x2 - x3 = 108, interval [1,18]
p cnf 18 64
1 3 11 0
-1 -3 -11 0
1 12 13 0
-1 -12 -13 0
2 4 11 0
-2 -4 -11 0
2 12 14 0
-2 -12 -14 0
3 5 11 0
-3 -5 -11 0
3 12 15 0
-3 -12 -15 0
4 6 11 0
-4 -6 -11 0
4 12 16 0
-4 -12 -16 0
5 7 11 0
-5 -7 -11 0
5 12 17 0
-5 -12 -17 0
6 8 11 0
-6 -8 -11 0
6 12 18 0
-6 -12 -18 0
7 9 11 0
-7 -9 -11 0
8 10 11 0
-8 -10 -11 0
1 9 10 0
-1 -9 -10 0
9 11 0
-9 -11 0
2 10 0
-2 -10 0
10 11 12 0
-10 -11 -12 0
3 10 11 0
-3 -10 -11 0
11 13 0
-11 -13 0
4 10 12 0
-4 -10 -12 0
11 12 14 0
-11 -12 -14 0
5 10 13 0
-5 -10 -13 0
11 13 15 0
-11 -13 -15 0
6 10 14 0
-6 -10 -14 0
11 14 16 0
-11 -14 -16 0
7 10 15 0
-7 -10 -15 0
11 15 17 0
-11 -15 -17 0
8 10 16 0
-8 -10 -16 0
11 16 18 0
-11 -16 -18 0
9 10 17 0
-9 -10 -17 0
10 18 0
-10 -18 0
