certificates/rado_a10_c108_N18.drat
-12 -18 0
-18 0
10 0
-2 0
-12 0
14 0
6 0
0
